(set-logic QF_UF)
(declare-fun A0 () Bool)
(declare-fun A1 () Bool)
(declare-fun A2 () Bool)
(declare-fun A3 () Bool)
(declare-fun A4 () Bool)
(declare-fun A6 () Bool)
(declare-fun A7 () Bool)
(declare-fun A8 () Bool)
(declare-fun A9 () Bool)
(declare-fun A10 () Bool)
(declare-fun A11 () Bool)
(declare-fun A12 () Bool)
(declare-fun A13 () Bool)
(declare-fun A14 () Bool)
(declare-fun A15 () Bool)
(declare-fun A16 () Bool)
(declare-fun A17 () Bool)
(declare-fun A18 () Bool)
(declare-fun A19 () Bool)
(declare-fun A20 () Bool)
(declare-fun A21 () Bool)
(declare-fun A22 () Bool)
(declare-fun A23 () Bool)
(declare-fun A24 () Bool)
(assert (let ((.def_0 (not A2))) (let ((.def_1 (not A11))) (let ((.def_2 (or .def_1 .def_0))) (let ((.def_3 (not .def_2))) (let ((.def_4 (not A14))) (let ((.def_5 (or A8 .def_4))) (let ((.def_6 (or .def_5 .def_3))) (let ((.def_7 (or A4 A15))) (let ((.def_8 (not .def_7))) (let ((.def_9 (not A1))) (let ((.def_10 (or .def_9 A16))) (let ((.def_11 (not .def_10))) (let ((.def_12 (or .def_11 .def_8))) (let ((.def_13 (or .def_12 .def_6))) (let ((.def_14 (= A12 A22))) (let ((.def_15 (and .def_0 A7))) (let ((.def_16 (= .def_15 .def_14))) (let ((.def_17 (not A17))) (let ((.def_18 (and A17 .def_17))) (let ((.def_19 (and A9 A18))) (let ((.def_20 (and .def_19 .def_18))) (let ((.def_21 (and .def_20 .def_16))) (let ((.def_22 (or .def_21 .def_13))) (let ((.def_23 (not A15))) (let ((.def_24 (or .def_23 A15))) (let ((.def_25 (not A6))) (let ((.def_26 (and A12 .def_25))) (let ((.def_27 (not .def_26))) (let ((.def_28 (or .def_27 .def_24))) (let ((.def_29 (not .def_28))) (let ((.def_30 (not A9))) (let ((.def_31 (not A12))) (let ((.def_32 (or .def_31 .def_30))) (let ((.def_33 (not .def_32))) (let ((.def_34 (or A21 A19))) (let ((.def_35 (not .def_34))) (let ((.def_36 (and .def_35 .def_33))) (let ((.def_37 (and .def_36 .def_29))) (let ((.def_38 (not A16))) (let ((.def_39 (and .def_38 .def_4))) (let ((.def_40 (and A21 .def_17))) (let ((.def_41 (or .def_40 .def_39))) (let ((.def_42 (not A22))) (let ((.def_43 (and .def_38 .def_42))) (let ((.def_44 (or A1 A9))) (let ((.def_45 (not .def_44))) (let ((.def_46 (and .def_45 .def_43))) (let ((.def_47 (not .def_46))) (let ((.def_48 (and .def_47 .def_41))) (let ((.def_49 (or .def_48 .def_37))) (let ((.def_50 (not .def_49))) (let ((.def_51 (or .def_50 .def_22))) (let ((.def_52 (or A9 A10))) (let ((.def_53 (not A3))) (let ((.def_54 (not A0))) (let ((.def_55 (or .def_54 .def_53))) (let ((.def_56 (= .def_55 .def_52))) (let ((.def_57 (not .def_56))) (let ((.def_58 (not A13))) (let ((.def_59 (not A10))) (let ((.def_60 (and .def_59 .def_58))) (let ((.def_61 (not A24))) (let ((.def_62 (and .def_61 A0))) (let ((.def_63 (not .def_62))) (let ((.def_64 (or .def_63 .def_60))) (let ((.def_65 (or .def_64 .def_57))) (let ((.def_66 (and .def_54 .def_61))) (let ((.def_67 (not .def_66))) (let ((.def_68 (and .def_53 .def_30))) (let ((.def_69 (not .def_68))) (let ((.def_70 (or .def_69 .def_67))) (let ((.def_71 (not A23))) (let ((.def_72 (and .def_71 A2))) (let ((.def_73 (not .def_72))) (let ((.def_74 (not A8))) (let ((.def_75 (or .def_74 .def_17))) (let ((.def_76 (or .def_75 .def_73))) (let ((.def_77 (and .def_76 .def_70))) (let ((.def_78 (not .def_77))) (let ((.def_79 (= .def_78 .def_65))) (let ((.def_80 (not .def_79))) (let ((.def_81 (or A23 .def_53))) (let ((.def_82 (not .def_81))) (let ((.def_83 (or .def_23 A3))) (let ((.def_84 (or .def_83 .def_82))) (let ((.def_85 (not .def_84))) (let ((.def_86 (not A20))) (let ((.def_87 (or .def_86 A3))) (let ((.def_88 (not .def_87))) (let ((.def_89 (or .def_42 .def_61))) (let ((.def_90 (and .def_89 .def_88))) (let ((.def_91 (or .def_90 .def_85))) (let ((.def_92 (not .def_91))) (let ((.def_93 (not A21))) (let ((.def_94 (= A9 .def_93))) (let ((.def_95 (not .def_94))) (let ((.def_96 (and A16 A17))) (let ((.def_97 (and .def_96 .def_95))) (let ((.def_98 (not .def_97))) (let ((.def_99 (and A14 .def_74))) (let ((.def_100 (not .def_99))) (let ((.def_101 (and A20 A14))) (let ((.def_102 (= .def_101 .def_100))) (let ((.def_103 (not .def_102))) (let ((.def_104 (or .def_103 .def_98))) (let ((.def_105 (not .def_104))) (let ((.def_106 (and .def_105 .def_92))) (let ((.def_107 (and .def_106 .def_80))) (let ((.def_108 (and .def_107 .def_51))) (let ((.def_109 (not .def_108))) .def_109)))))))))))))))))))))))))))))))))))))))))))))))))))))))))))))))))))))))))))))))))))))))))))))))))))))))))))))))
(check-sat)
